! This PC GAMESS input file is OK for RAM > 100MB
!
 $CONTRL SCFTYP=RHF RUNTYP=OPTIMIZE COORD=CART 
  NZVAR=0 MULT=1 ICHARG=0 $END
 $SYSTEM TIMLIM=20000 MEMORY=10000000 $END
 $STATPT NSTEP=1000 $END
 $BASIS GBASIS=STO NGAUSS=3 $END
 $GUESS GUESS=HUCKEL $END
 $DATA
Test...HCHO molecule - RHF/STO-3G (a comment line)
 Cn 1

 C    6.0     0.6084782705     -0.0000011694    0.00000000000
 O    8.0    -0.6082418894     -0.0000002093    0.00000000000
 H    1.0     1.2040919862     -0.9264398115    0.00000000000
 H    1.0     1.2040973125      0.9264340484    0.00000000000
 $END
